57756
0 26 4123
26 32 4053
32 41 4807
41 44 1302
44 10 436
10 24 545
24 30 299
30 51 1153
51 1 598
1 13 433
13 8 471
8 11 723
11 17 768
17 3 606
3 29 380
29 46 944
46 53 491
53 33 401
33 52 396
52 22 388
22 20 176
20 28 516
28 16 1002
16 47 415
47 18 897
18 48 934
48 25 560
25 54 397
54 27 487
27 5 404
5 2 385
2 42 1096
42 39 1279
39 50 1042
50 12 644
12 40 686
40 31 362
31 43 676
43 7 383
7 37 368
37 23 802
23 34 296
34 4 323
4 36 467
36 6 517
6 49 1609
49 19 763
19 21 5456
21 9 117
9 15 734
15 14 556
14 38 485
38 45 214
45 35 402
35 0 8989
